problems/VanDerWaerdenNumbers/VanDerWaerden-models/noch/O2/lingeling/model_2-k3l4n39-solution000001.solution
language Essence 1.3

letting p be
        partition({1, 6, 7, 9, 12, 14, 16, 20, 21, 22, 27, 35, 37}, {2, 4, 8, 15, 17, 18, 19, 26, 28, 32, 33, 34, 36},
                  {3, 5, 10, 11, 13, 23, 24, 25, 29, 30, 31, 38, 39})
